; Copyright (c) 2026 The RIINA Authors. All rights reserved.
; Copyright (c) 2026 The RIINA Authors.
; Auto-generated from 02_FORMAL/coq/domains/mobile_os/ComputerVision.v (25 assertions)
; Generated by scripts/generate-full-stack.py
; Module: ComputerVision

(set-logic ALL)
(set-option :produce-models true)

; BarcodeFormat (matches Coq: Inductive BarcodeFormat)
(declare-datatypes ((BarcodeFormat 0)) (((QRCode) (EAN13) (Code128) (DataMatrix) (UnknownFormat))))

; BoundingBox (matches Coq: Record BoundingBox)
(declare-datatypes ((BoundingBox 0))
  (((mk-bounding_box (bbox_x Int) (bbox_y Int) (bbox_w Int) (bbox_h Int)))))

; Detection (matches Coq: Record Detection)
(declare-datatypes ((Detection 0))
  (((mk-detection (det_box BoundingBox) (det_class ClassLabel) (det_confidence Confidence) (det_valid Bool)))))

; ObjectDetectionResult (matches Coq: Record ObjectDetectionResult)
(declare-datatypes ((ObjectDetectionResult 0))
  (((mk-object_detection_result (od_detections list) (od_processed_on_device Bool) (od_latency_ms Int)))))

; FaceDetection (matches Coq: Record FaceDetection)
(declare-datatypes ((FaceDetection 0))
  (((mk-face_detection (face_box BoundingBox) (face_confidence Int) (face_data_on_device Bool) (face_anonymized Bool)))))

; OCRResult (matches Coq: Record OCRResult)
(declare-datatypes ((OCRResult 0))
  (((mk-ocr_result (ocr_text list) (ocr_confidence Int) (ocr_language Int) (ocr_accuracy_bound Int)))))

; ObjectDetection (matches Coq: Record ObjectDetection)
(declare-datatypes ((ObjectDetection 0))
  (((mk-object_detection (obj_class ClassLabel) (obj_confidence Confidence) (obj_bbox BoundingBox) (obj_confidence_reported Bool)))))

; ClassificationResult (matches Coq: Record ClassificationResult)
(declare-datatypes ((ClassificationResult 0))
  (((mk-classification_result (class_label ClassLabel) (class_score Int) (class_deterministic Bool)))))

; BarcodeResult (matches Coq: Record BarcodeResult)
(declare-datatypes ((BarcodeResult 0))
  (((mk-barcode_result (barcode_format BarcodeFormat) (barcode_data list) (barcode_valid Bool)))))

; PhotoAnalysis (matches Coq: Record PhotoAnalysis)
(declare-datatypes ((PhotoAnalysis 0))
  (((mk-photo_analysis (photo_id Int) (analysis_result list) (permission_granted Bool) (processed_on_device Bool)))))

; DepthEstimate (matches Coq: Record DepthEstimate)
(declare-datatypes ((DepthEstimate 0))
  (((mk-depth_estimate (depth_value Int) (depth_min Int) (depth_max Int) (depth_confidence Int)))))

; PoseEstimate (matches Coq: Record PoseEstimate)
(declare-datatypes ((PoseEstimate 0))
  (((mk-pose_estimate (pose_joints list) (pose_stable Bool) (pose_frame_count Int)))))

; SceneClassification (matches Coq: Record SceneClassification)
(declare-datatypes ((SceneClassification 0))
  (((mk-scene_classification (scene_label Int) (scene_confidence Int) (scene_consistent Bool)))))

; TextRecognition (matches Coq: Record TextRecognition)
(declare-datatypes ((TextRecognition 0))
  (((mk-text_recognition (text_content list) (text_language Int) (text_supported_languages list) (text_language_supported Bool)))))

; VisionRequest (matches Coq: Record VisionRequest)
(declare-datatypes ((VisionRequest 0))
  (((mk-vision_request (vr_id Int) (vr_cancelled Bool) (vr_completed Bool)))))

; ImagePair (matches Coq: Record ImagePair)
(declare-datatypes ((ImagePair 0))
  (((mk-image_pair (img_a Image) (img_b Image) (similarity_score Int)))))

; PipelineStage (matches Coq: Record PipelineStage)
(declare-datatypes ((PipelineStage 0))
  (((mk-pipeline_stage (stage_id Int) (stage_order Int) (stage_complete Bool)))))

; FrameAnalysis (matches Coq: Record FrameAnalysis)
(declare-datatypes ((FrameAnalysis 0))
  (((mk-frame_analysis (frame_id Int) (frame_timestamp_ms Int) (min_interval_ms Int)))))

; Pixel (matches Coq: Definition Pixel)
(define-fun Pixel () Type nat)

; Image (matches Coq: Definition Image)
(define-fun Image () Type true)

; ClassLabel (matches Coq: Definition ClassLabel)
(define-fun ClassLabel () Type nat)

; Confidence (matches Coq: Definition Confidence)
(define-fun Confidence () Type nat)

; valid_detection (matches Coq: Definition valid_detection)
(define-fun valid_detection ((d Detection)) Prop
  true)

; accurate_detection (matches Coq: Definition accurate_detection)
(define-fun accurate_detection ((d Detection) (ground_truth BoundingBox)) Prop
  true)

; detection_bounded (matches Coq: Definition detection_bounded)
(define-fun detection_bounded ((r ObjectDetectionResult)) Prop
  true)

; cv_private (matches Coq: Definition cv_private)
(define-fun cv_private ((r ObjectDetectionResult)) Prop
  true)

; face_privacy_preserving (matches Coq: Definition face_privacy_preserving)
(define-fun face_privacy_preserving ((fd FaceDetection)) Prop
  true)

; ocr_accuracy_within_bound (matches Coq: Definition ocr_accuracy_within_bound)
(define-fun ocr_accuracy_within_bound ((r OCRResult)) Prop
  true)

; confidence_properly_reported (matches Coq: Definition confidence_properly_reported)
(define-fun confidence_properly_reported ((od ObjectDetection)) Prop
  true)

; classification_deterministic (matches Coq: Definition classification_deterministic)
(define-fun classification_deterministic ((cr ClassificationResult)) Prop
  true)

; barcode_format_known (matches Coq: Definition barcode_format_known)
(define-fun barcode_format_known ((br BarcodeResult)) Prop
  true)

; photo_analysis_permitted (matches Coq: Definition photo_analysis_permitted)
(define-fun photo_analysis_permitted ((pa PhotoAnalysis)) Prop
  true)

; depth_within_bounds (matches Coq: Definition depth_within_bounds)
(define-fun depth_within_bounds ((de DepthEstimate)) Prop
  true)

; pose_is_stable (matches Coq: Definition pose_is_stable)
(define-fun pose_is_stable ((pe PoseEstimate)) Prop
  true)

; scene_is_consistent (matches Coq: Definition scene_is_consistent)
(define-fun scene_is_consistent ((sc SceneClassification)) Prop
  true)

; language_is_supported (matches Coq: Definition language_is_supported)
(define-fun language_is_supported ((tr TextRecognition)) Prop
  true)

; request_cancellable (matches Coq: Definition request_cancellable)
(define-fun request_cancellable ((vr VisionRequest)) Prop
  true)

; similarity_symmetric_pair (matches Coq: Definition similarity_symmetric_pair)
(define-fun similarity_symmetric_pair () Prop true)

; frame_rate_limited (matches Coq: Definition frame_rate_limited)
(define-fun frame_rate_limited () Prop true)

; object_detection_bounded (matches Coq: Theorem object_detection_bounded)
(assert (= true true)) ; object_detection_bounded [untranslatable]

; detection_latency_bounded (matches Coq: Theorem detection_latency_bounded)
(assert (= true true)) ; detection_latency_bounded [untranslatable]

; valid_detection_min_confidence (matches Coq: Theorem valid_detection_min_confidence)
(assert (= true true)) ; valid_detection_min_confidence [untranslatable]

; cv_stays_on_device (matches Coq: Theorem cv_stays_on_device)
(assert (= true true)) ; cv_stays_on_device [untranslatable]

; empty_result_bounded (matches Coq: Theorem empty_result_bounded)
(assert (= true true)) ; empty_result_bounded [untranslatable]

; face_detection_privacy_preserving (matches Coq: Theorem face_detection_privacy_preserving)
(assert (= true true)) ; face_detection_privacy_preserving [untranslatable]

; ocr_accuracy_bounded (matches Coq: Theorem ocr_accuracy_bounded)
(assert (= true true)) ; ocr_accuracy_bounded [untranslatable]

; object_detection_confidence_reported (matches Coq: Theorem object_detection_confidence_reported)
(assert (= true true)) ; object_detection_confidence_reported [untranslatable]

; image_classification_deterministic (matches Coq: Theorem image_classification_deterministic)
(assert (= true true)) ; image_classification_deterministic [untranslatable]

; barcode_format_validated (matches Coq: Theorem barcode_format_validated)
(assert (= true true)) ; barcode_format_validated [untranslatable]

; face_data_on_device_preserved (matches Coq: Theorem face_data_on_device_preserved)
(assert (= true true)) ; face_data_on_device_preserved [untranslatable]

; photo_analysis_permission_required (matches Coq: Theorem photo_analysis_permission_required)
(assert (= true true)) ; photo_analysis_permission_required [untranslatable]

; depth_estimation_bounded (matches Coq: Theorem depth_estimation_bounded)
(assert (= true true)) ; depth_estimation_bounded [untranslatable]

; pose_estimation_stable (matches Coq: Theorem pose_estimation_stable)
(assert (= true true)) ; pose_estimation_stable [untranslatable]

; scene_classification_consistent (matches Coq: Theorem scene_classification_consistent)
(assert (= true true)) ; scene_classification_consistent [untranslatable]

; text_recognition_language_supported (matches Coq: Theorem text_recognition_language_supported)
(assert (= true true)) ; text_recognition_language_supported [untranslatable]

; vision_request_cancellable (matches Coq: Theorem vision_request_cancellable)
(assert (= true true)) ; vision_request_cancellable [untranslatable]

; image_similarity_symmetric (matches Coq: Theorem image_similarity_symmetric)
(assert (= true true)) ; image_similarity_symmetric [untranslatable]

; vision_pipeline_ordered (matches Coq: Theorem vision_pipeline_ordered)
(assert (= true true)) ; vision_pipeline_ordered [untranslatable]

; frame_analysis_rate_limited (matches Coq: Theorem frame_analysis_rate_limited)
(assert (= true true)) ; frame_analysis_rate_limited [untranslatable]

; object_detection_confidence_bounded (matches Coq: Theorem object_detection_confidence_bounded)
(assert (= true true)) ; object_detection_confidence_bounded [untranslatable]

; depth_estimation_lower_bound (matches Coq: Theorem depth_estimation_lower_bound)
(assert (= true true)) ; depth_estimation_lower_bound [untranslatable]

; pose_estimation_min_frames (matches Coq: Theorem pose_estimation_min_frames)
(assert (= true true)) ; pose_estimation_min_frames [untranslatable]

; language_in_supported_list (matches Coq: Theorem language_in_supported_list)
(assert (= true true)) ; language_in_supported_list [untranslatable]

; empty_detections_always_bounded (matches Coq: Theorem empty_detections_always_bounded)
(assert (= true true)) ; empty_detections_always_bounded [untranslatable]

; Verify all assertions are satisfiable
(check-sat)
(exit)
